g9 3 1 0 36 20130207 0 4 0 368	# problem hs085
 5 36 1 0 0	# vars, constraints, objectives, ranges, eqns
 33 1	# nonlinear constraints, objectives
 0 0	# network constraints: nonlinear, linear
 5 5 5	# nonlinear vars in constraints, objectives, both
 0 0 0 1	# linear network variables; functions; arith, flags
 0 0 0 0 0	# discrete variables: binary, integer, nonlinear (b,c,o)
 109 5	# nonzeros in Jacobian, gradients
 0 0	# max name lengths: constraints, variables
 33 0 0 1 2	# common exprs: b,c,o,c1,o1
V5 2 0	#y1
1 1
2 1
n41.6
V6 1 0	#c1
3 0.024
n-4.62
V7 1 0	#c5
1 100
n0
V8 0 0	#y2
o0	# + 
o3	#/
n12.5
v6	#c1
n12
V9 1 0	#c2
0 0.5311
o0	# + 
o2	#*
n0.0003535
o5	#^
v0	#x[1]
n2
o2	#*
o2	#*
n0.08705
v8	#y2
v0	#x[1]
V10 1 0	#c3
0 0.052
o0	# + 
o2	#*
o2	#*
n0.002377
v8	#y2
v0	#x[1]
n78
V11 0 0	#c11
o2	#*
o2	#*
n1.74125
v8	#y2
v0	#x[1]
V12 0 0	#y3
o3	#/
v9	#c2
v10	#c3
V13 0 0	#y4
o2	#*
n19
v12	#y3
V14 1 0	#c4
0 0.04782
o54	#sumlist
3
o2	#*
n0.6376
v13	#y4
o2	#*
n1.54618
v12	#y3
o3	#/
o2	#*
n0.1956
o5	#^
o1	# - 
v0	#x[1]
v12	#y3
n2
v1	#x[2]
V15 1 0	#c6
0 1
o1	# - 
o16	#-
v12	#y3
v13	#y4
V16 0 0	#nl(y11)
o0	# + 
o2	#*
n-0.452
v13	#y4
o2	#*
n0.58
v12	#y3
V17 0 0	#c7
o1	# - 
n0.95
o3	#/
v14	#c4
v7	#c5
V18 0 0	#y5
o2	#*
v15	#c6
v17	#c7
V19 0 0	#nl(y6)
o16	#-
o54	#sumlist
3
v18	#y5
v13	#y4
v12	#y3
V20 0 0	#c8
o0	# + 
o2	#*
n0.995
v18	#y5
o2	#*
n0.995
v13	#y4
V21 0 0	#nl(y10)
o54	#sumlist
4
o2	#*
n1.71
v19	#nl(y6)
o2	#*
n1.29
v18	#y5
o2	#*
n1.258
v13	#y4
o2	#*
n2.29
v12	#y3
V22 0 0	#y8
o2	#*
n0.0002632964718272775
v20	#c8
V23 0 0	#y7
o3	#/
v20	#c8
v5	#y1
V24 0 0	#nl(c12)
o2	#*
n0.995
v21	#nl(y10)
V25 1 0	#c12
0 1.70145
o0	# + 
v24	#nl(c12)
n1998
V26 1 0	#c14
0 3974.04
o0	# + 
o2	#*
n2324
v21	#nl(y10)
o2	#*
n-28740000
v8	#y2
V27 0 0	#c9
o54	#sumlist
3
v23	#y7
o16	#-
o3	#/
o2	#*
n0.0663
v23	#y7
v22	#y8
n-0.3153
V28 0 0	#nl(y13)
o0	# + 
v24	#nl(c12)
o2	#*
n-1.75
v8	#y2
V29 1 0	#y13
0 1.70145
o0	# + 
v28	#nl(y13)
n1998
V30 0 0	#nl(y12)
o3	#/
v11	#c11
v25	#c12
V31 0 0	#nl(y17)
o54	#sumlist
3
o2	#*
n-1328
v21	#nl(y10)
o2	#*
n-531
v16	#nl(y11)
o3	#/
v26	#c14
v25	#c12
V32 0 0	#nl(y9)
o3	#/
n96.82
v27	#c9
V33 2 0	#y9
1 0.321
2 0.321
o0	# + 
v32	#nl(y9)
n13.3536
V34 0 0	#nl(y14)
o3	#/
n146312
o0	# + 
v33	#y9
v4	#x[5]
V35 4 0	#c13
0 1.70145
1 53.58076
2 -6.54664
3 48
o54	#sumlist
3
o2	#*
n-0.1121
v34	#nl(y14)
o2	#*
n0.995
v21	#nl(y10)
n-5501.1383
V36 0 0	#y15
o3	#/
v29	#y13
v35	#c13
V37 0 0	#nl(y16)
o54	#sumlist
3
o2	#*
n-331000
v36	#y15
o2	#*
n40
v28	#nl(y13)
o16	#-
o2	#*
o2	#*
n61
v36	#y15
v29	#y13
C0	#con14
v8	#y2
C1	#con16
v13	#y4
C2	#con17
v18	#y5
C3	#con18
v19	#nl(y6)
C4	#con19
v23	#y7
C5	#con20
v22	#y8
C6	#con21
v32	#nl(y9)
C7	#con22
v21	#nl(y10)
C8	#con23
v16	#nl(y11)
C9	#con24
v30	#nl(y12)
C10	#con25
v28	#nl(y13)
C11	#con26
v34	#nl(y14)
C12	#con27
v36	#y15
C13	#con28
v37	#nl(y16)
C14	#con29
v31	#nl(y17)
C15	#con30
o16	#-
v8	#y2
C16	#con31
o16	#-
v12	#y3
C17	#con33
o16	#-
v18	#y5
C18	#con34
o16	#-
v19	#nl(y6)
C19	#con35
o16	#-
v23	#y7
C20	#con36
o16	#-
v22	#y8
C21	#con37
o16	#-
v32	#nl(y9)
C22	#con38
o16	#-
v21	#nl(y10)
C23	#con39
o16	#-
v16	#nl(y11)
C24	#con40
o16	#-
v30	#nl(y12)
C25	#con41
o16	#-
v28	#nl(y13)
C26	#con42
o16	#-
v34	#nl(y14)
C27	#con43
o16	#-
v36	#y15
C28	#con44
o16	#-
v37	#nl(y16)
C29	#con45
o16	#-
v31	#nl(y17)
C30	#con46
o0	# + 
o2	#*
n-0.38888888888888895
v18	#y5
v13	#y4
C31	#con47
o16	#-
o3	#/
o2	#*
n3496
v8	#y2
v25	#c12
V38 3 33	#c17
1 0.321
2 0.321
4 1
o0	# + 
v32	#nl(y9)
n13.3536
C32	#con48
o3	#/
n62212
v38	#c17
C33	#con1
n0
C34	#con2
n0
C35	#con3
n0
V39 0 37	#c16
o0	# + 
o2	#*
n-0.72
v36	#y15
n1.104
V40 1 37	#c15
0 -3.27201923076923
o54	#sumlist
3
o2	#*
n-1.923076923076923
v28	#nl(y13)
o3	#/
v29	#y13
v36	#y15
n-3842.307692307692
O0 0	#obj
o54	#sumlist
9
o2	#*
n1.502e-06
v37	#nl(y16)
o2	#*
n0.000117
v34	#nl(y14)
o2	#*
n-5.843e-07
v31	#nl(y17)
o2	#*
n0.0321
v30	#nl(y12)
o2	#*
n2.358e-05
v28	#nl(y13)
o2	#*
n0.004324
v18	#y5
o3	#/
o2	#*
n0.0001
v40	#c15
v39	#c16
o3	#/
o2	#*
n37.48
v8	#y2
v25	#c12
n-7.30631932
x5	# initial guess
0 900
1 80
2 115
3 267
4 27
r	#36 ranges (rhs's)
2 17.505
2 214.228
2 7.458
2 0.961
2 1.612
2 0.146
2 94.6364
2 922.693
2 926.832
2 18.766
2 -925.837
2 5338.448
2 0.063
2 -156835.66999999998
2 -11327287
2 -1053.6667
2 -35.03
2 -584.463
2 -265.916
2 -7.046
2 -0.222
2 -260.01239999999996
2 -1286.105
2 -1444.046
2 -537.141
2 -1249.0390000000002
2 -23221.086
2 -0.386
2 87920
2 1983892
2 0
2 -21
2 152.2
2 0
2 171.5
2 -363.63
b	#5 bounds (on variables)
0 704.4148 906.3855
0 68.6 288.88
0 0 134.75
0 193 287.0966
0 25 84.1988
k4	#intermediate Jacobian column lengths
30
60
74
106
J0 1
3 0
J1 2
0 0
3 0
J2 3
0 0
1 0
3 0
J3 3
0 1
1 0
3 0
J4 4
0 0
1 0
2 0
3 0
J5 3
0 0
1 0
3 0
J6 4
0 0
1 0.321
2 0.321
3 0
J7 3
0 1.71
1 0
3 0
J8 2
0 1.71
3 0
J9 3
0 0.016349860428020738
1 0
3 0
J10 3
0 1.70145
1 0
3 0
J11 5
0 0
1 64.4
2 58.4
3 0
4 0
J12 4
0 0
1 0
2 0
3 0
J13 4
0 68.05799999999999
1 0
2 0
3 0
J14 3
0 -3178.8900000000003
1 0
3 0
J15 1
3 0
J16 2
0 0
3 0
J17 3
0 0
1 0
3 0
J18 3
0 -1
1 0
3 0
J19 4
0 0
1 0
2 0
3 0
J20 3
0 0
1 0
3 0
J21 4
0 0
1 -0.321
2 -0.321
3 0
J22 3
0 -1.71
1 0
3 0
J23 2
0 -1.71
3 0
J24 3
0 -0.016349860428020738
1 0
3 0
J25 3
0 -1.70145
1 0
3 0
J26 5
0 0
1 -64.4
2 -58.4
3 0
4 0
J27 4
0 0
1 0
2 0
3 0
J28 4
0 -68.05799999999999
1 0
2 0
3 0
J29 3
0 3178.8900000000003
1 0
3 0
J30 3
0 0
1 0
3 0
J31 3
0 0
1 0
3 0
J32 3
1 -1
2 -1
4 0
J33 2
1 1.5
2 -1
J34 2
1 1
2 1
J35 2
1 -1
2 -1
G0 5
0 0.0025245992537394654
1 0.0075348
2 0.0068328
3 0
4 0
